//Number of items      		
157
//Bin Capacity      
1000
//Known Best Solution  		
72
//Weight of Item
    1000	 1
     799         1
     797         1
     793         1
     776         2
     770         1
     758         1
     755         2
     752         1
     750         1
     745         1
     736         1
     733         1
     721         1
     714         2
     713         1
     711         1
     706         1
     703         1
     702         1
     699         1
     697         1
     684         1
     680         1
     679         1
     673         1
     666         2
     665         1
     661         1
     660         1
     659         1
     651         1
     648         1
     646         1
     641         1
     639         1
     629         1
     623         1
     620         1
     615         1
     610         2
     603         2
     597         1
     583         2
     577         1
     572         2
     561         1
     554         1
     548         1
     545         1
     536         1
     532         1
     531         1
     525         2
     523         1
     522         1
     513         1
     503         1
     496         1
     494         1
     481         1
     477         1
     472         1
     471         1
     468         1
     458         1
     457         2
     455         1
     451         1
     436         1
     434         1
     432         1
     429         1
     412         1
     411         1
     407         2
     401         1
     399         1
     397         1
     393         1
     391         1
     387         1
     376         1
     372         2
     368         1
     363         1
     358         1
     354         1
     352         1
     348         1
     342         1
     340         1
     328         1
     327         1
     326         2
     318         1
     317         1
     313         1
     309         1
     307         2
     305         2
     297         1
     296         1
     292         1
     287         1
     281         1
     279         1
     278         2
     276         2
     267         1
     265         1
     257         1
     255         1
     239         1
     229         1
     219         1
     215         1
     214         1
     210         1
     202         1
     201         2
     200         1
     199         1
     197         1
     183         2
     172         1
     171         1
     169         1
     158         1
     144         1
     128         1
     127         1
     123         1
     120         2
     118         1
     109         1
     108         1
     103         1
     101         1
      99         1
      94         1
      82         1
      79         1
      66         2
      65         1
      63         1
      51         2
      45         1
      41         1
      39         1
      36         1
      34         1
      32         1
      30         2
      23         1
      22         1
      20         1
       7         1